\* FanduelSelections *\
Maximize
OBJ: 20.5047338355 x0 + 14.8117333644 x1 + 11.7763753319 x10
 + 24.8320093668 x100 + 25.6319413984 x101 + 23.7760648768 x102
 + 24.8320093668 x103 + 23.7760648768 x104 + 25.6319413984 x105
 + 23.7760648768 x106 + 24.8320093668 x107 + 24.8320093668 x108
 + 28.4868654971 x109 + 11.4147411961 x11 + 28.4868654971 x110
 + 22.8314648729 x111 + 24.8320093668 x112 + 23.7760648768 x113
 + 24.8320093668 x114 + 22.8314648729 x115 + 25.6319413984 x116
 + 28.4868654971 x117 + 24.8320093668 x118 + 22.8314648729 x119
 + 30.6199899986 x12 + 28.4868654971 x120 + 23.7760648768 x121
 + 24.8320093668 x122 + 24.8320093668 x123 + 25.6319413984 x124
 + 25.6319413984 x125 + 24.8320093668 x126 + 22.8314648729 x127
 + 24.8320093668 x128 + 25.6319413984 x129 + 19.4402549015 x13
 + 23.7760648768 x130 + 22.8314648729 x131 + 24.8320093668 x132
 + 25.6319413984 x133 + 25.6319413984 x134 + 22.8314648729 x135
 + 28.4868654971 x136 + 22.8314648729 x137 + 28.4868654971 x138
 + 22.8314648729 x139 + 11.8758531024 x14 + 22.8314648729 x140
 + 24.8320093668 x141 + 23.7760648768 x142 + 23.7760648768 x143
 + 24.8320093668 x144 + 25.6319413984 x145 + 28.4868654971 x146
 + 28.4868654971 x147 + 28.4868654971 x148 + 28.4868654971 x149
 + 15.1818219661 x15 + 28.4868654971 x150 + 25.6319413984 x151
 + 24.8320093668 x152 + 28.4868654971 x153 + 23.7760648768 x154
 + 23.7760648768 x155 + 23.7760648768 x156 + 24.8320093668 x157
 + 25.6319413984 x158 + 23.7760648768 x159 + 15.3815506543 x16
 + 28.4868654971 x160 + 24.8320093668 x161 + 25.6319413984 x162
 + 22.8314648729 x163 + 28.4868654971 x164 + 24.8320093668 x165
 + 28.4868654971 x166 + 22.8314648729 x167 + 28.4868654971 x168
 + 25.6319413984 x169 + 13.0918591461 x17 + 24.8320093668 x170
 + 22.8314648729 x171 + 25.6319413984 x172 + 25.6319413984 x173
 + 28.4868654971 x174 + 25.6319413984 x175 + 22.8314648729 x176
 + 22.8314648729 x177 + 23.7760648768 x178 + 28.4868654971 x179
 + 14.1001134854 x18 + 24.8320093668 x180 + 22.8314648729 x181
 + 22.8314648729 x182 + 23.7760648768 x183 + 24.8320093668 x184
 + 25.6319413984 x185 + 28.4868654971 x186 + 28.4868654971 x187
 + 22.8314648729 x188 + 25.6319413984 x189 + 14.4745488402 x19
 + 25.6319413984 x190 + 23.7760648768 x191 + 25.6319413984 x192
 + 28.4868654971 x193 + 23.7760648768 x194 + 22.8314648729 x195
 + 28.4868654971 x196 + 28.4868654971 x197 + 23.7760648768 x198
 + 23.7760648768 x199 + 12.1359750408 x2 + 16.6315504556 x20
 + 28.4868654971 x200 + 22.8314648729 x201 + 23.7760648768 x202
 + 28.4868654971 x203 + 22.8314648729 x204 + 28.4868654971 x205
 + 24.8320093668 x206 + 28.4868654971 x207 + 25.6319413984 x208
 + 25.6319413984 x209 + 20.8700024862 x21 + 28.4868654971 x210
 + 25.6319413984 x211 + 22.8314648729 x212 + 25.6319413984 x213
 + 25.6319413984 x214 + 24.8320093668 x215 + 24.8320093668 x216
 + 24.8320093668 x217 + 25.6319413984 x218 + 25.6319413984 x219
 + 14.5703543033 x22 + 22.8314648729 x220 + 22.8314648729 x221
 + 23.7760648768 x222 + 22.8314648729 x223 + 22.8314648729 x224
 + 25.6319413984 x225 + 22.8314648729 x226 + 28.4868654971 x227
 + 28.4868654971 x228 + 24.8320093668 x229 + 10.4479046581 x23
 + 23.7760648768 x230 + 28.4868654971 x231 + 23.7760648768 x232
 + 22.8314648729 x233 + 23.7760648768 x234 + 25.6319413984 x235
 + 22.8314648729 x236 + 24.8320093668 x237 + 25.6319413984 x238
 + 28.4868654971 x239 + 15.7416471361 x24 + 23.7760648768 x240
 + 25.6319413984 x241 + 23.7760648768 x242 + 23.7760648768 x243
 + 22.8314648729 x25 + 22.8314648729 x26 + 24.8320093668 x27
 + 28.4868654971 x28 + 25.6319413984 x29 + 15.8528058848 x3
 + 24.8320093668 x30 + 22.8314648729 x31 + 24.8320093668 x32
 + 23.7760648768 x33 + 24.8320093668 x34 + 22.8314648729 x35
 + 24.8320093668 x36 + 22.8314648729 x37 + 24.8320093668 x38
 + 25.6319413984 x39 + 23.5507406833 x4 + 23.7760648768 x40
 + 25.6319413984 x41 + 23.7760648768 x42 + 25.6319413984 x43
 + 22.8314648729 x44 + 28.4868654971 x45 + 25.6319413984 x46
 + 23.7760648768 x47 + 28.4868654971 x48 + 24.8320093668 x49
 + 25.0543308135 x5 + 22.8314648729 x50 + 22.8314648729 x51
 + 23.7760648768 x52 + 24.8320093668 x53 + 28.4868654971 x54
 + 23.7760648768 x55 + 22.8314648729 x56 + 24.8320093668 x57
 + 25.6319413984 x58 + 28.4868654971 x59 + 15.3224158266 x6
 + 24.8320093668 x60 + 22.8314648729 x61 + 24.8320093668 x62
 + 25.6319413984 x63 + 28.4868654971 x64 + 28.4868654971 x65
 + 23.7760648768 x66 + 24.8320093668 x67 + 23.7760648768 x68
 + 24.8320093668 x69 + 17.5584459937 x7 + 22.8314648729 x70
 + 28.4868654971 x71 + 25.6319413984 x72 + 25.6319413984 x73
 + 25.6319413984 x74 + 23.7760648768 x75 + 25.6319413984 x76
 + 23.7760648768 x77 + 23.7760648768 x78 + 23.7760648768 x79
 + 20.6908787305 x8 + 24.8320093668 x80 + 22.8314648729 x81
 + 24.8320093668 x82 + 22.8314648729 x83 + 23.7760648768 x84
 + 23.7760648768 x85 + 23.7760648768 x86 + 24.8320093668 x87
 + 25.6319413984 x88 + 28.4868654971 x89 + 19.6871508351 x9
 + 25.6319413984 x90 + 28.4868654971 x91 + 22.8314648729 x92
 + 23.7760648768 x93 + 22.8314648729 x94 + 22.8314648729 x95
 + 23.7760648768 x96 + 22.8314648729 x97 + 25.6319413984 x98
 + 25.6319413984 x99
Subject To
_C1: x0 + x1 + x10 + x100 + x101 + x102 + x103 + x104 + x105 + x106 + x107
 + x108 + x109 + x11 + x110 + x111 + x112 + x113 + x114 + x115 + x116 + x117
 + x118 + x119 + x12 + x120 + x121 + x122 + x123 + x124 + x125 + x126 + x127
 + x128 + x129 + x13 + x130 + x131 + x132 + x133 + x134 + x135 + x136 + x137
 + x138 + x139 + x14 + x140 + x141 + x142 + x143 + x144 + x145 + x146 + x147
 + x148 + x149 + x15 + x150 + x151 + x152 + x153 + x154 + x155 + x156 + x157
 + x158 + x159 + x16 + x160 + x161 + x162 + x163 + x164 + x165 + x166 + x167
 + x168 + x169 + x17 + x170 + x171 + x172 + x173 + x174 + x175 + x176 + x177
 + x178 + x179 + x18 + x180 + x181 + x182 + x183 + x184 + x185 + x186 + x187
 + x188 + x189 + x19 + x190 + x191 + x192 + x193 + x194 + x195 + x196 + x197
 + x198 + x199 + x2 + x20 + x200 + x201 + x202 + x203 + x204 + x205 + x206
 + x207 + x208 + x209 + x21 + x210 + x211 + x212 + x213 + x214 + x215 + x216
 + x217 + x218 + x219 + x22 + x220 + x221 + x222 + x223 + x224 + x225 + x226
 + x227 + x228 + x229 + x23 + x230 + x231 + x232 + x233 + x234 + x235 + x236
 + x237 + x238 + x239 + x24 + x240 + x241 + x242 + x243 + x25 + x26 + x27
 + x28 + x29 + x3 + x30 + x31 + x32 + x33 + x34 + x35 + x36 + x37 + x38 + x39
 + x4 + x40 + x41 + x42 + x43 + x44 + x45 + x46 + x47 + x48 + x49 + x5 + x50
 + x51 + x52 + x53 + x54 + x55 + x56 + x57 + x58 + x59 + x6 + x60 + x61 + x62
 + x63 + x64 + x65 + x66 + x67 + x68 + x69 + x7 + x70 + x71 + x72 + x73 + x74
 + x75 + x76 + x77 + x78 + x79 + x8 + x80 + x81 + x82 + x83 + x84 + x85 + x86
 + x87 + x88 + x89 + x9 + x90 + x91 + x92 + x93 + x94 + x95 + x96 + x97 + x98
 + x99 = 9
_C2: x0 + x101 + x105 + x116 + x12 + x124 + x125 + x129 + x133 + x134 + x145
 + x151 + x158 + x162 + x169 + x172 + x173 + x175 + x185 + x189 + x190 + x192
 + x208 + x209 + x211 + x213 + x214 + x218 + x219 + x225 + x235 + x238 + x24
 + x241 + x29 + x39 + x41 + x43 + x46 + x5 + x58 + x63 + x72 + x73 + x74 + x76
 + x88 + x9 + x90 + x98 + x99 = 2
_C3: x102 + x104 + x106 + x11 + x113 + x121 + x13 + x130 + x142 + x143 + x154
 + x155 + x156 + x159 + x178 + x18 + x183 + x19 + x191 + x194 + x198 + x199
 + x20 + x202 + x222 + x230 + x232 + x234 + x240 + x242 + x243 + x3 + x33
 + x40 + x42 + x47 + x52 + x55 + x66 + x68 + x75 + x77 + x78 + x79 + x84 + x85
 + x86 + x93 + x96 = 2
_C4: x111 + x115 + x119 + x127 + x131 + x135 + x137 + x139 + x140 + x15 + x163
 + x167 + x171 + x176 + x177 + x181 + x182 + x188 + x195 + x201 + x204 + x212
 + x220 + x221 + x223 + x224 + x226 + x233 + x236 + x25 + x26 + x31 + x35
 + x37 + x44 + x50 + x51 + x56 + x61 + x7 + x70 + x8 + x81 + x83 + x92 + x94
 + x95 + x97 = 2
_C5: x1 + x10 + x100 + x103 + x107 + x108 + x112 + x114 + x118 + x122 + x123
 + x126 + x128 + x132 + x14 + x141 + x144 + x152 + x157 + x161 + x165 + x170
 + x180 + x184 + x2 + x206 + x21 + x215 + x216 + x217 + x22 + x229 + x237
 + x27 + x30 + x32 + x34 + x36 + x38 + x4 + x49 + x53 + x57 + x60 + x62 + x67
 + x69 + x80 + x82 + x87 = 2
_C6: x109 + x110 + x117 + x120 + x136 + x138 + x146 + x147 + x148 + x149
 + x150 + x153 + x16 + x160 + x164 + x166 + x168 + x17 + x174 + x179 + x186
 + x187 + x193 + x196 + x197 + x200 + x203 + x205 + x207 + x210 + x227 + x228
 + x23 + x231 + x239 + x28 + x45 + x48 + x54 + x59 + x6 + x64 + x65 + x71
 + x89 + x91 = 1
_C7: 3500 x0 + 3500 x1 + 3500 x10 + 4400 x100 + 9100 x101 + 11700 x102
 + 5100 x103 + 4900 x104 + 3500 x105 + 5300 x106 + 8000 x107 + 3800 x108
 + 6400 x109 + 3500 x11 + 4900 x110 + 7200 x111 + 4500 x112 + 5100 x113
 + 3500 x114 + 3500 x115 + 7900 x116 + 4900 x117 + 5200 x118 + 6100 x119
 + 7900 x12 + 8100 x120 + 10100 x121 + 4300 x122 + 4900 x123 + 3500 x124
 + 6100 x125 + 4700 x126 + 3500 x127 + 7800 x128 + 3500 x129 + 4100 x13
 + 4900 x130 + 4400 x131 + 3500 x132 + 5700 x133 + 3900 x134 + 7600 x135
 + 4400 x136 + 4200 x137 + 3500 x138 + 3700 x139 + 3500 x14 + 9900 x140
 + 4200 x141 + 3600 x142 + 6200 x143 + 5600 x144 + 4000 x145 + 6900 x146
 + 4300 x147 + 3600 x148 + 3800 x149 + 3500 x15 + 4600 x150 + 5500 x151
 + 4200 x152 + 3500 x153 + 4400 x154 + 5200 x155 + 4300 x156 + 5200 x157
 + 5800 x158 + 3500 x159 + 3500 x16 + 4900 x160 + 4000 x161 + 3500 x162
 + 4500 x163 + 3600 x164 + 3900 x165 + 3500 x166 + 4300 x167 + 3500 x168
 + 6100 x169 + 3500 x17 + 3700 x170 + 6500 x171 + 11800 x172 + 5400 x173
 + 7400 x174 + 4600 x175 + 3500 x176 + 5100 x177 + 6400 x178 + 10300 x179
 + 3500 x18 + 4800 x180 + 3700 x181 + 4400 x182 + 4100 x183 + 3500 x184
 + 6900 x185 + 6200 x186 + 5800 x187 + 4900 x188 + 3800 x189 + 3500 x19
 + 5400 x190 + 3600 x191 + 4200 x192 + 6700 x193 + 6300 x194 + 8500 x195
 + 5300 x196 + 6200 x197 + 3600 x198 + 3700 x199 + 3500 x2 + 3500 x20
 + 3700 x200 + 7100 x201 + 3500 x202 + 4300 x203 + 4400 x204 + 3500 x205
 + 4500 x206 + 6200 x207 + 7600 x208 + 9000 x209 + 3500 x21 + 8100 x210
 + 7300 x211 + 4000 x212 + 3700 x213 + 6300 x214 + 3500 x215 + 9600 x216
 + 4000 x217 + 6300 x218 + 3800 x219 + 3500 x22 + 3900 x220 + 9800 x221
 + 3700 x222 + 3700 x223 + 3500 x224 + 3600 x225 + 4500 x226 + 3600 x227
 + 9300 x228 + 6900 x229 + 3600 x23 + 7500 x230 + 3700 x231 + 3700 x232
 + 3500 x233 + 5600 x234 + 6300 x235 + 5200 x236 + 3500 x237 + 5800 x238
 + 9000 x239 + 3500 x24 + 4800 x240 + 4100 x241 + 6700 x242 + 5900 x243
 + 3600 x25 + 5200 x26 + 3500 x27 + 5300 x28 + 3900 x29 + 3500 x3 + 6000 x30
 + 3900 x31 + 7800 x32 + 3500 x33 + 4000 x34 + 4100 x35 + 5900 x36 + 3500 x37
 + 3600 x38 + 7600 x39 + 6000 x4 + 4200 x40 + 3600 x41 + 9400 x42 + 8200 x43
 + 4000 x44 + 3500 x45 + 4000 x46 + 4900 x47 + 4900 x48 + 7200 x49 + 4400 x5
 + 6100 x50 + 3700 x51 + 5300 x52 + 4300 x53 + 7300 x54 + 3800 x55 + 5100 x56
 + 11600 x57 + 9400 x58 + 6100 x59 + 3500 x6 + 5300 x60 + 3800 x61 + 3900 x62
 + 3500 x63 + 4600 x64 + 4100 x65 + 4000 x66 + 4500 x67 + 5700 x68 + 6200 x69
 + 3500 x7 + 3500 x70 + 4400 x71 + 3500 x72 + 3500 x73 + 3500 x74 + 4100 x75
 + 3600 x76 + 4300 x77 + 6000 x78 + 3500 x79 + 3500 x8 + 3500 x80 + 3500 x81
 + 6900 x82 + 3500 x83 + 3600 x84 + 4700 x85 + 3600 x86 + 3600 x87 + 8600 x88
 + 6700 x89 + 3500 x9 + 9600 x90 + 3500 x91 + 5000 x92 + 6200 x93 + 3500 x94
 + 5900 x95 + 4800 x96 + 3900 x97 + 3500 x98 + 4500 x99 <= 60000
Binaries
x0
x1
x10
x100
x101
x102
x103
x104
x105
x106
x107
x108
x109
x11
x110
x111
x112
x113
x114
x115
x116
x117
x118
x119
x12
x120
x121
x122
x123
x124
x125
x126
x127
x128
x129
x13
x130
x131
x132
x133
x134
x135
x136
x137
x138
x139
x14
x140
x141
x142
x143
x144
x145
x146
x147
x148
x149
x15
x150
x151
x152
x153
x154
x155
x156
x157
x158
x159
x16
x160
x161
x162
x163
x164
x165
x166
x167
x168
x169
x17
x170
x171
x172
x173
x174
x175
x176
x177
x178
x179
x18
x180
x181
x182
x183
x184
x185
x186
x187
x188
x189
x19
x190
x191
x192
x193
x194
x195
x196
x197
x198
x199
x2
x20
x200
x201
x202
x203
x204
x205
x206
x207
x208
x209
x21
x210
x211
x212
x213
x214
x215
x216
x217
x218
x219
x22
x220
x221
x222
x223
x224
x225
x226
x227
x228
x229
x23
x230
x231
x232
x233
x234
x235
x236
x237
x238
x239
x24
x240
x241
x242
x243
x25
x26
x27
x28
x29
x3
x30
x31
x32
x33
x34
x35
x36
x37
x38
x39
x4
x40
x41
x42
x43
x44
x45
x46
x47
x48
x49
x5
x50
x51
x52
x53
x54
x55
x56
x57
x58
x59
x6
x60
x61
x62
x63
x64
x65
x66
x67
x68
x69
x7
x70
x71
x72
x73
x74
x75
x76
x77
x78
x79
x8
x80
x81
x82
x83
x84
x85
x86
x87
x88
x89
x9
x90
x91
x92
x93
x94
x95
x96
x97
x98
x99
End
